DATASET = "thpack2";
INSTANCE = "038";

WIDTH = 233;
HEIGHT = 220;
LENGTH = 587;

NO_OF_SHAPES = 5;
size = [|
  104,94,50 |
  102,87,36 |
  115,42,33 |
  61,58,32 |
  70,62,48 |
|];

verticality = [|
  0,1,1 |
  0,0,1 |
  0,1,1 |
  1,1,1 |
  1,1,1 |
|];

box_count = [
  26,
  17,
  21,
  25,
  27,
];
